(declare-const tr0 Int)
(declare-const cont_aux Int)
(declare-const j Int)
(declare-const phi_cont_aux Int)
(declare-const tr1 Int)
(declare-const |cont_aux'| Int)
(declare-const |j'| Int)
(declare-const term_to_project_onto0_integralized Int)
(declare-const term_to_project_onto_integralized Int)
(declare-const tr2 Int)
(declare-const tr Int)
(assert (and (<= (- cont_aux) 0) (<= (- j) 0) (<= (+ j -9) 0)
               (or (and (or (<= (+ (- tr0) tr 1) 0) (<= (+ tr0 (- tr) 1) 0))
                          (= (+ (- phi_cont_aux) cont_aux) 0))
                     (and (= (+ (- tr2) tr1) 0)
                            (= (+ (- phi_cont_aux) cont_aux 1) 0)))
               (= (+ |cont_aux'| (- phi_cont_aux)) 0) (= (+ |j'| (- j) -1) 0)
               (= (+ term_to_project_onto0_integralized (- (+ |j'| (- j)))) 0)
               (= (+ term_to_project_onto_integralized
                       (- (+ |cont_aux'| (- cont_aux)))) 0)))